c Command line: hgen8 190 60
p cnf 190 295
136 75 160 154 0
61 90 128 139 0
159 187 46 107 0
109 40 119 180 0
15 14 79 162 0
149 132 156 69 0
3 137 82 129 0
138 23 57 185 0
4 134 125 145 0
36 131 17 92 0
106 117 182 56 0
87 113 167 44 0
28 168 58 10 0
21 59 165 86 0
155 83 24 72 0
140 98 48 41 0
110 186 49 35 0
148 78 120 153 0
133 74 95 144 0
123 52 8 103 0
19 1 97 158 0
66 11 108 121 0
27 62 173 127 0
77 183 64 68 0
65 179 38 16 0
32 25 169 93 0
118 102 39 164 0
190 34 189 126 0
161 130 114 84 0
166 2 43 188 0
105 96 37 141 0
5 184 142 177 0
116 13 112 63 0
175 99 45 111 0
53 88 89 73 0
67 20 81 42 0
30 157 94 122 0
176 100 60 54 0
146 115 6 135 0
-1 -2 0
-1 -3 0
-1 -4 0
-1 -5 0
-2 -3 0
-2 -4 0
-2 -5 0
-3 -4 0
-3 -5 0
-4 -5 0
-6 -8 0
-6 -10 0
-8 -10 0
-11 -13 0
-11 -14 0
-11 -15 0
-13 -14 0
-13 -15 0
-14 -15 0
-16 -17 0
-16 -19 0
-16 -20 0
-17 -19 0
-17 -20 0
-19 -20 0
-21 -23 0
-21 -24 0
-21 -25 0
-23 -24 0
-23 -25 0
-24 -25 0
-27 -28 0
-27 -30 0
-28 -30 0
-32 -34 0
-32 -35 0
-34 -35 0
-36 -37 0
-36 -38 0
-36 -39 0
-36 -40 0
-37 -38 0
-37 -39 0
-37 -40 0
-38 -39 0
-38 -40 0
-39 -40 0
-41 -42 0
-41 -43 0
-41 -44 0
-41 -45 0
-42 -43 0
-42 -44 0
-42 -45 0
-43 -44 0
-43 -45 0
-44 -45 0
-46 -48 0
-46 -49 0
-48 -49 0
-52 -53 0
-52 -54 0
-53 -54 0
-56 -57 0
-56 -58 0
-56 -59 0
-56 -60 0
-57 -58 0
-57 -59 0
-57 -60 0
-58 -59 0
-58 -60 0
-59 -60 0
-61 -62 0
-61 -63 0
-61 -64 0
-61 -65 0
-62 -63 0
-62 -64 0
-62 -65 0
-63 -64 0
-63 -65 0
-64 -65 0
-66 -67 0
-66 -68 0
-66 -69 0
-67 -68 0
-67 -69 0
-68 -69 0
-72 -73 0
-72 -74 0
-72 -75 0
-73 -74 0
-73 -75 0
-74 -75 0
-77 -78 0
-77 -79 0
-78 -79 0
-81 -82 0
-81 -83 0
-81 -84 0
-82 -83 0
-82 -84 0
-83 -84 0
-86 -87 0
-86 -88 0
-86 -89 0
-86 -90 0
-87 -88 0
-87 -89 0
-87 -90 0
-88 -89 0
-88 -90 0
-89 -90 0
-92 -93 0
-92 -94 0
-92 -95 0
-93 -94 0
-93 -95 0
-94 -95 0
-96 -97 0
-96 -98 0
-96 -99 0
-96 -100 0
-97 -98 0
-97 -99 0
-97 -100 0
-98 -99 0
-98 -100 0
-99 -100 0
-102 -103 0
-102 -105 0
-103 -105 0
-106 -107 0
-106 -108 0
-106 -109 0
-106 -110 0
-107 -108 0
-107 -109 0
-107 -110 0
-108 -109 0
-108 -110 0
-109 -110 0
-111 -112 0
-111 -113 0
-111 -114 0
-111 -115 0
-112 -113 0
-112 -114 0
-112 -115 0
-113 -114 0
-113 -115 0
-114 -115 0
-116 -117 0
-116 -118 0
-116 -119 0
-116 -120 0
-117 -118 0
-117 -119 0
-117 -120 0
-118 -119 0
-118 -120 0
-119 -120 0
-121 -122 0
-121 -123 0
-121 -125 0
-122 -123 0
-122 -125 0
-123 -125 0
-126 -127 0
-126 -128 0
-126 -129 0
-126 -130 0
-127 -128 0
-127 -129 0
-127 -130 0
-128 -129 0
-128 -130 0
-129 -130 0
-131 -132 0
-131 -133 0
-131 -134 0
-131 -135 0
-132 -133 0
-132 -134 0
-132 -135 0
-133 -134 0
-133 -135 0
-134 -135 0
-136 -137 0
-136 -138 0
-136 -139 0
-136 -140 0
-137 -138 0
-137 -139 0
-137 -140 0
-138 -139 0
-138 -140 0
-139 -140 0
-141 -142 0
-141 -144 0
-141 -145 0
-142 -144 0
-142 -145 0
-144 -145 0
-146 -148 0
-146 -149 0
-148 -149 0
-153 -154 0
-153 -155 0
-154 -155 0
-156 -157 0
-156 -158 0
-156 -159 0
-156 -160 0
-157 -158 0
-157 -159 0
-157 -160 0
-158 -159 0
-158 -160 0
-159 -160 0
-161 -162 0
-161 -164 0
-161 -165 0
-162 -164 0
-162 -165 0
-164 -165 0
-166 -167 0
-166 -168 0
-166 -169 0
-167 -168 0
-167 -169 0
-168 -169 0
-173 -175 0
-176 -177 0
-176 -179 0
-176 -180 0
-177 -179 0
-177 -180 0
-179 -180 0
-182 -183 0
-182 -184 0
-182 -185 0
-183 -184 0
-183 -185 0
-184 -185 0
-186 -187 0
-186 -188 0
-186 -189 0
-186 -190 0
-187 -188 0
-187 -189 0
-187 -190 0
-188 -189 0
-188 -190 0
-189 -190 0
